Maximize
score: + 24170.844 c0 + 76325.922 c1 + 1233.693 c2 + 243.406 c3 + 145.576 c4 + 471.81 c5 + 1792.85 c6 + 595.039 c7 + 92.239 c8 + 295.724 c9 + 90.673 c10 + 423.119 c11 + 620.221 c12 + 86.79 c13 + 527.978 c14 + 32.727 c15 + 163.163 c16 + 192.717 c17 + 147.849 c18 + 85.513 c19 + 178.236 c20 + 64.749 c21 + 72.466 c22 + 233.712 c23 + 23.136 c24 + 9.173 c25 + 10.505 c26 + 45.673 c27 + 33.384 c28 + 58.024 c29 + 29.31 c30 + 233.555 c31 + 827.135 c32 + 12.504 c33 + 268.299 c34 + 17.744 c35 + 120.691 c36 + 99.246 c37 + 367.519 c38 + 135.025 c39 + 131.509 c40 + 240.457 c41 + 230.26 c42 + 20.136 c43 + 22.067 c44 + 35.97 c45 + 7.843 c46 + 11.258 c47 + 44.664 c48 + 45.632 c49 + 885.273 c50 + 459.803 c51 + 328.544 c52 + 359.721 c53 + 315.493 c54 + 267.969 c55 + 184.126 c56 + 241.994 c57 + 1475.955 c58 + 162.13 c59 + 501.025 c60 + 1966.513 c61 + 799.181 c62 + 81.471 c63 + 20.859 c64 + 3.057 c65 + 876.975 c66 + 523.256 c67 + 21.977 c68 + 10.073 c69 + 79.384 c70 + 25.157 c71 + 1.573 c72 + 28.265 c73 + 8.381 c74 + 24.068 c75 + 20.375 c76 + 5.731 c77 + 963.109 c78 + 179.104 c79 + 689.494 c80 + 726.168 c81 + 19.247 c82 + 26.012 c83 + 79.596 c84 + 8.739 c85 + 40.796 c86 + 380.492 c87 + 378.88 c88 + 26.637 c89 + 15.871 c90 + 62.454 c91 + 11.032 c92 + 26.979 c93 + 110.449 c94 + 503.304 c95 + 259.361 c96 + 97.419 c97 + 20.674 c98 + 52.064 c99 + 110.92 c100 + 30.028 c101 + 12.374 c102 + 17.813 c103 + 21.509 c104 + 11.629 c105 + 12.116 c106 + 28.942 c107 + 35.428 c108 + 1.929 c109 + 7.957 c110 + 4.857 c111 + 33.055 c112 + 45.413 c113 + 10.282 c114 + 12.088 c115 + 6.33 c116 + 35.858 c117 + 50.789 c118 + 13.131 c119 + 6.922 c120 + 46.737 c121 + 13.323 c122 + 15.484 c123 + 23.515 c124 + 23.499 c125 + 13.564 c126 + 41.797 c127 + 27.183 c128 + 5.102 c129 + 10.706 c130 + 42.156 c131 + 43.397 c132 + 4.952 c133 + 59.014 c134 + 12.292 c135 + 6.638 c136 + 49.728 c137 + 10.218 c138 + 19.81 c139 + 10.175 c140 + 23.985 c141 + 27.387 c142 + 8.38 c143 + 2.669 c144 + 15.044 c145 + 0.219 c146 + 43.563 c147 + 5.451 c148 + 5.907 c149 + 21.465 c150 + 13.09 c151 + 21.416 c152 + 2.188 c153 + 32.751 c154 + 77.276 c155 + 10.745 c156 + 19.618 c157 + 35.859 c158 + 10.059 c159 + 32.898 c160 + 39.083 c161 + 8.333 c162 + 3.048 c163 + 4.746 c164 + 55.378 c165 + 5.555 c166 + 12.833 c167 + 36.834 c168 + 42.12 c169 + 24.076 c170 + 110.123 c171 + 32.687 c172 + 25.968 c173 + 19.56 c174 + 15.029 c175 + 5.945 c176 + 37.862 c177 + 35.695 c178 + 20.981 c179 + 23.809 c180 + 20.075 c181 + 34.295 c182 + 54.058 c183 + 9.074 c184 + 25.232 c185 + 17.522 c186 + 14.899 c187 + 95.604 c188 + 17.671 c189 + 11.893 c190 + 115.377 c191 + 25.671 c192 + 4.706 c193 + 14.465 c194 + 14.847 c195 + 71.029 c196 + 2.499 c197 + 3.79 c198 + 28.268 c199 + 30.407 c200 + 54.219 c201 + 12.205 c202 + 133.568 c203 + 12.43 c204 + 245.785 c205 + 125.324 c206 + 79.823 c207 + 37.264 c208 + 18.525 c209 + 9.905 c210 + 12.873 c211 + 20.378 c212 + 30.273 c213 + 10.043 c214 + 25.534 c215 + 287.228 c216 + 77.426 c217 + 107.922 c218 + 55.246 c219 + 13.761 c220 + 385.619 c221 + 197.457 c222 + 35.438 c223 + 10.077 c224 + 28.484 c225 + 9.908 c226 + 16.123 c227 + 5.593 c228 + 44.841 c229 + 8.96 c230 + 7.677 c231 + 4.544 c232 + 13.02 c233 + 18.322 c234 + 59.806 c235 + 3.144 c236 + 81.257 c237 + 8.312 c238

Subject To
index_0: s69 + s71 + s73 + s76 + s80 + s81 + s83 + s85 - c0 >= 0
index_1: s15 + s16 + s69 + s72 + s73 + s76 + s80 + s83 + s86 - c1 >= 0
index_2: s20 + s33 + s38 + s45 + s59 + s64 + s69 + s70 + s72 + s73 + s74 + s76 + s77 + s79 + s80 + s82 + s83 + s85 + s87 - c2 >= 0
index_3: s24 + s69 + s70 + s72 + s73 + s74 + s75 + s76 + s79 + s80 + s82 + s83 + s85 + s87 - c3 >= 0
index_4: s24 + s25 + s68 + s69 + s73 + s75 + s78 + s82 + s83 + s84 + s85 - c4 >= 0
index_5: s16 + s35 + s37 + s39 + s40 + s63 + s67 + s68 + s74 + s76 + s83 + s87 - c5 >= 0
index_6: s70 + s72 + s74 + s76 + s80 + s83 + s87 - c6 >= 0
index_7: s0 + s3 + s98 + s100 - c7 >= 0
index_8: s4 + s5 + s6 + s7 + s9 + s10 + s11 + s12 + s14 + s16 + s17 + s19 + s20 + s22 + s23 + s24 + s25 + s26 + s29 + s34 + s35 + s38 + s39 + s41 + s42 + s43 + s45 + s46 + s48 + s49 + s50 + s51 + s56 + s59 + s63 + s65 + s66 + s67 + s69 + s70 + s71 + s72 + s73 + s75 + s76 + s78 + s79 + s80 + s82 + s83 + s84 + s85 + s87 + s88 + s90 + s92 + s93 + s94 + s97 + s101 + s102 + s103 + s104 + s105 + s107 - c8 >= 0
index_9: s34 + s37 + s39 + s59 + s63 + s65 + s66 - c9 >= 0
index_10: s34 + s37 + s39 + s59 + s63 + s65 + s66 - c10 >= 0
index_11: s69 + s70 + s72 + s73 + s74 + s76 + s77 + s79 + s80 + s82 + s83 + s85 + s87 - c11 >= 0
index_12: s15 + s16 + s69 + s72 + s73 + s76 + s80 + s83 + s86 - c12 >= 0
index_13: s19 + s21 + s23 + s26 + s33 + s35 + s37 + s38 + s39 + s58 + s60 + s61 + s62 + s63 + s64 + s67 - c13 >= 0
index_14: s18 + s19 + s43 + s45 + s93 + s94 - c14 >= 0
index_15: s13 + s15 + s16 + s69 + s72 + s73 + s76 + s80 + s83 + s86 - c15 >= 0
index_16: s22 + s27 + s68 + s69 + s70 + s77 + s78 + s80 - c16 >= 0
index_17: s26 + s70 + s71 + s72 + s80 + s81 + s87 - c17 >= 0
index_18: s98 - c18 >= 0
index_19: s24 + s25 + s69 + s73 + s75 + s78 + s80 + s82 + s83 + s85 - c19 >= 0
index_20: s0 + s2 + s5 + s7 + s9 + s11 + s12 + s13 + s14 + s29 + s49 + s56 + s88 + s90 + s93 + s94 + s97 + s98 + s100 + s101 + s103 + s104 + s105 + s107 + s108 - c20 >= 0
index_21: s36 + s63 + s72 + s73 + s74 + s82 + s83 - c21 >= 0
index_22: s36 + s39 + s40 + s63 + s67 + s76 + s87 - c22 >= 0
index_23: s22 + s25 + s68 + s69 + s73 + s74 + s75 + s77 + s78 + s80 + s82 + s83 + s85 + s91 - c23 >= 0
index_24: s16 + s19 + s25 + s39 + s40 + s45 + s67 + s69 + s71 + s72 + s73 + s75 + s78 + s81 + s82 + s85 + s88 + s94 - c24 >= 0
index_25: s18 + s19 + s43 + s45 + s93 + s94 - c25 >= 0
index_26: s23 + s24 + s34 + s39 + s59 + s67 + s69 + s70 + s72 + s73 + s74 + s75 + s76 + s79 + s80 + s82 + s83 + s85 + s87 - c26 >= 0
index_27: s21 + s26 + s35 + s38 + s39 + s46 + s51 + s63 + s64 + s65 + s66 + s69 + s79 - c27 >= 0
index_28: s18 + s19 + s43 + s45 + s93 + s94 - c28 >= 0
index_29: s18 + s19 + s43 + s45 + s93 + s94 - c29 >= 0
index_30: s26 + s35 + s36 + s54 + s62 + s63 + s74 + s76 + s83 + s87 - c30 >= 0
index_31: s36 + s39 + s40 + s63 + s67 + s76 + s87 - c31 >= 0
index_32: s16 + s38 + s64 + s65 - c32 >= 0
index_33: s16 + s19 + s27 + s38 + s68 + s77 + s89 + s95 - c33 >= 0
index_34: s16 + s17 + s38 + s42 + s65 - c34 >= 0
index_35: s42 - c35 >= 0
index_36: s7 + s8 + s11 + s12 + s50 + s99 + s100 - c36 >= 0
index_37: s16 + s25 + s68 + s69 + s71 + s72 + s75 + s77 + s79 + s81 + s82 + s84 + s94 + s95 + s96 - c37 >= 0
index_38: s23 + s46 + s102 + s103 - c38 >= 0
index_39: s11 + s99 + s100 - c39 >= 0
index_40: s16 + s25 + s50 + s68 + s69 + s71 + s72 + s75 + s77 + s78 + s79 + s81 + s82 + s84 + s95 + s96 - c40 >= 0
index_41: s12 + s28 + s41 + s57 + s69 + s83 + s97 - c41 >= 0
index_42: s3 + s5 + s11 + s14 + s15 + s30 + s32 + s39 + s50 + s52 + s56 + s57 + s66 + s70 + s81 + s92 + s94 + s96 + s100 + s104 + s106 - c42 >= 0
index_43: s19 + s27 + s69 + s70 + s72 + s73 + s74 + s75 + s77 + s79 + s80 + s82 + s83 + s85 + s87 - c43 >= 0
index_44: s16 + s19 + s28 + s39 + s40 + s44 + s56 + s67 + s68 + s71 + s72 + s74 + s76 + s77 + s81 + s82 + s83 + s87 + s88 + s91 + s94 - c44 >= 0
index_45: s15 + s16 + s20 + s69 + s72 + s73 + s76 + s80 + s83 + s86 + s89 - c45 >= 0
index_46: s4 + s37 + s63 + s92 + s93 + s94 - c46 >= 0
index_47: s14 + s15 + s71 + s81 + s101 - c47 >= 0
index_48: s6 + s7 + s11 + s14 + s15 + s16 + s17 + s18 + s19 + s21 + s22 + s23 + s27 + s29 + s31 + s32 + s33 + s34 + s36 + s38 + s39 + s40 + s49 + s58 + s59 + s60 + s62 + s63 + s65 + s66 + s68 + s69 + s77 + s78 + s87 + s88 + s89 + s90 + s92 + s93 + s94 + s95 + s96 + s100 + s104 + s107 - c48 >= 0
index_49: s20 + s21 + s26 + s34 + s35 + s39 + s46 + s53 + s59 + s60 + s65 + s66 - c49 >= 0
index_50: s7 + s8 + s9 + s12 + s105 - c50 >= 0
index_51: s4 + s16 + s19 + s41 + s42 + s45 + s88 + s89 + s91 - c51 >= 0
index_52: s17 + s20 + s24 + s25 + s28 + s33 + s34 + s36 + s37 + s45 + s48 + s50 + s56 + s59 + s62 + s64 - c52 >= 0
index_53: s2 + s4 + s5 + s6 + s10 + s43 + s93 + s98 + s102 + s103 + s104 + s107 - c53 >= 0
index_54: s7 + s18 + s20 + s22 + s26 + s35 + s36 + s38 + s46 + s47 + s61 + s63 + s65 + s68 + s69 + s71 + s72 + s77 + s79 + s81 + s82 + s91 + s93 - c54 >= 0
index_55: s19 + s25 + s26 + s69 + s71 + s72 + s73 + s76 + s80 + s81 + s82 + s83 + s85 - c55 >= 0
index_56: s14 + s15 + s19 + s23 + s26 + s33 + s59 + s69 + s78 + s87 + s96 + s97 - c56 >= 0
index_57: s7 + s8 + s9 + s16 + s18 + s20 + s33 + s37 + s38 + s40 + s62 + s64 + s68 + s69 + s73 + s76 + s77 + s80 + s81 + s83 + s89 + s91 + s101 - c57 >= 0
index_58: s25 + s73 + s75 + s78 + s82 + s85 - c58 >= 0
index_59: s69 + s71 + s73 + s76 + s80 + s81 + s83 + s85 - c59 >= 0
index_60: s14 + s26 + s58 + s64 + s68 + s84 + s94 - c60 >= 0
index_61: s69 + s71 + s73 + s76 + s80 + s81 + s83 - c61 >= 0
index_62: s69 + s70 + s72 + s73 + s75 + s76 + s79 + s80 + s82 + s85 + s87 - c62 >= 0
index_63: s18 + s19 + s43 + s45 + s93 + s94 - c63 >= 0
index_64: s26 + s27 + s28 + s30 + s54 + s55 + s68 + s69 + s71 + s77 + s79 + s81 - c64 >= 0
index_65: s0 + s3 + s5 + s7 + s9 + s11 + s12 + s14 + s23 + s29 + s49 + s56 + s88 + s90 + s93 + s94 + s97 + s98 + s100 + s101 + s103 + s104 + s105 + s107 + s108 - c65 >= 0
index_66: s1 + s3 + s5 + s12 + s98 + s99 + s100 + s101 + s103 + s107 - c66 >= 0
index_67: s4 + s43 + s44 + s46 + s48 + s50 + s51 + s53 + s54 + s56 + s57 - c67 >= 0
index_68: s33 + s35 + s37 + s58 + s60 + s62 + s63 - c68 >= 0
index_69: s18 + s20 + s21 + s23 + s26 + s33 + s35 + s38 + s58 + s61 + s62 + s64 - c69 >= 0
index_70: s23 + s35 + s37 + s38 + s60 + s62 + s63 + s64 - c70 >= 0
index_71: s19 + s26 + s34 + s39 + s53 + s59 + s65 + s66 - c71 >= 0
index_72: s18 + s19 + s21 + s23 + s25 + s26 + s32 + s34 + s35 + s36 + s37 + s38 + s39 + s58 + s59 + s60 + s62 + s63 + s64 + s65 + s66 + s76 + s87 - c72 >= 0
index_73: s20 + s36 + s38 + s39 + s63 + s64 + s65 + s66 + s76 + s87 - c73 >= 0
index_74: s3 + s5 + s6 + s7 + s11 + s12 + s91 + s93 + s97 + s104 + s107 - c74 >= 0
index_75: s16 + s17 + s20 + s38 + s59 + s64 + s65 - c75 >= 0
index_76: s20 + s21 + s33 + s34 + s35 + s38 + s39 + s58 + s59 + s61 + s62 + s64 + s66 - c76 >= 0
index_77: s26 + s30 + s43 + s54 + s57 + s68 + s71 + s77 + s81 - c77 >= 0
index_78: s41 + s42 - c78 >= 0
index_79: s5 + s6 + s27 + s36 + s54 + s63 + s102 + s103 + s107 - c79 >= 0
index_80: s16 + s25 - c80 >= 0
index_81: s12 + s97 + s107 - c81 >= 0
index_82: s22 + s25 + s68 + s69 + s73 + s74 + s75 + s77 + s78 + s80 + s82 + s83 + s85 + s89 + s91 - c82 >= 0
index_83: s21 + s26 + s28 + s46 + s49 + s50 - c83 >= 0
index_84: s26 + s30 + s54 + s57 + s68 + s71 + s77 + s81 - c84 >= 0
index_85: s36 + s63 + s72 + s73 + s82 + s83 + s95 - c85 >= 0
index_86: s36 + s63 + s72 + s73 + s74 + s82 + s83 - c86 >= 0
index_87: s22 + s26 + s36 + s38 + s47 + s63 + s65 - c87 >= 0
index_88: s20 + s30 + s32 + s45 + s58 + s66 - c88 >= 0
index_89: s16 + s35 + s37 + s39 + s63 + s67 - c89 >= 0
index_90: s20 + s33 + s34 + s35 + s45 + s59 + s61 - c90 >= 0
index_91: s16 + s35 + s37 + s39 + s63 + s67 - c91 >= 0
index_92: s16 + s22 + s28 + s48 + s56 + s62 - c92 >= 0
index_93: s43 + s44 - c93 >= 0
index_94: s12 + s13 + s15 + s93 + s95 + s96 + s97 - c94 >= 0
index_95: s14 + s28 + s36 + s63 + s97 - c95 >= 0
index_96: s15 + s89 + s91 + s93 - c96 >= 0
index_97: s27 + s58 + s61 + s69 + s72 + s73 + s74 + s78 + s82 + s83 + s89 + s95 - c97 >= 0
index_98: s4 + s16 + s19 + s27 + s28 + s38 + s45 + s64 + s68 + s77 + s89 - c98 >= 0
index_99: s16 + s19 + s25 + s39 + s40 + s45 + s67 + s69 + s71 + s72 + s73 + s75 + s78 + s81 + s82 + s85 + s88 + s94 - c99 >= 0
index_100: s36 + s63 + s72 + s73 + s82 + s83 - c100 >= 0
index_101: s16 + s19 + s41 + s45 + s55 + s88 - c101 >= 0
index_102: s16 + s19 + s20 + s28 + s41 + s45 + s56 + s88 + s89 - c102 >= 0
index_103: s26 + s30 + s91 + s93 - c103 >= 0
index_104: s16 + s35 + s37 + s39 + s45 + s63 + s67 - c104 >= 0
index_105: s16 + s35 + s37 + s39 + s40 + s63 + s67 + s68 + s74 + s76 + s83 + s87 - c105 >= 0
index_106: s15 + s16 + s20 + s41 + s69 + s72 + s73 + s76 + s80 + s83 + s85 - c106 >= 0
index_107: s15 + s16 + s20 + s62 + s69 + s72 + s73 + s76 + s80 + s83 + s86 - c107 >= 0
index_108: s16 + s19 + s28 + s41 + s45 + s56 + s88 + s89 - c108 >= 0
index_109: s20 + s22 + s26 + s35 + s38 + s39 + s40 + s51 + s65 + s66 + s67 + s68 + s75 + s84 + s91 + s92 - c109 >= 0
index_110: s69 + s71 + s72 + s73 + s76 + s80 + s82 + s83 + s85 + s96 - c110 >= 0
index_111: s33 + s34 + s58 + s59 - c111 >= 0
index_112: s4 + s16 + s19 + s41 + s45 + s56 + s88 + s89 - c112 >= 0
index_113: s16 + s19 + s28 + s41 + s45 + s56 + s88 + s89 - c113 >= 0
index_114: s16 + s22 + s28 + s35 + s60 - c114 >= 0
index_115: s22 + s28 + s48 + s56 - c115 >= 0
index_116: s16 + s17 + s65 + s96 - c116 >= 0
index_117: s41 + s42 - c117 >= 0
index_118: s41 + s42 - c118 >= 0
index_119: s12 + s13 + s14 + s15 + s31 + s89 + s93 + s97 - c119 >= 0
index_120: s12 + s15 + s32 + s36 + s39 + s40 + s58 + s63 + s67 + s76 + s87 + s93 + s95 + s96 + s97 - c120 >= 0
index_121: s32 + s33 + s34 + s36 + s58 + s59 + s60 + s63 + s70 + s72 + s80 + s82 + s89 + s93 - c121 >= 0
index_122: s30 + s32 + s35 + s36 + s39 + s40 + s57 + s59 + s62 + s63 + s67 + s74 + s76 + s83 + s87 + s89 + s90 - c122 >= 0
index_123: s17 + s38 + s65 - c123 >= 0
index_124: s17 + s38 + s65 - c124 >= 0
index_125: s15 + s16 + s19 + s28 + s44 + s56 + s87 + s89 + s91 + s93 + s103 - c125 >= 0
index_126: s33 + s59 + s89 + s102 + s105 + s107 - c126 >= 0
index_127: s2 - c127 >= 0
index_128: s2 + s107 - c128 >= 0
index_129: s20 + s22 + s23 + s26 + s28 + s29 + s31 + s33 + s36 + s39 + s40 + s53 + s54 + s55 + s57 + s59 + s63 + s65 + s66 + s68 + s69 + s76 + s79 + s87 + s90 - c129 >= 0
index_130: s12 + s13 + s15 + s93 + s95 + s96 + s97 - c130 >= 0
index_131: s43 + s47 + s48 + s50 + s53 + s56 + s57 - c131 >= 0
index_132: s5 + s6 + s11 + s12 + s102 + s103 + s106 + s107 - c132 >= 0
index_133: s17 + s35 + s42 + s43 + s45 + s61 - c133 >= 0
index_134: s16 + s18 + s19 + s22 + s23 + s26 + s29 + s30 + s36 + s63 + s68 + s69 + s72 + s77 + s78 + s80 + s82 + s87 + s89 + s91 + s92 + s93 + s94 - c134 >= 0
index_135: s8 + s15 + s20 + s94 + s96 - c135 >= 0
index_136: s5 + s6 + s7 + s11 + s12 + s102 + s103 + s106 + s107 - c136 >= 0
index_137: s51 - c137 >= 0
index_138: s5 + s102 + s106 - c138 >= 0
index_139: s5 + s6 + s7 - c139 >= 0
index_140: s89 + s101 + s102 + s103 + s106 - c140 >= 0
index_141: s20 + s22 + s25 + s26 + s32 + s36 + s50 + s57 + s63 + s68 + s69 + s73 + s74 + s75 + s76 + s77 + s78 + s80 + s82 + s83 + s85 + s87 + s89 + s91 + s94 - c141 >= 0
index_142: s69 + s71 + s72 + s73 + s76 + s80 + s82 + s83 + s86 - c142 >= 0
index_143: s32 + s35 + s37 + s58 + s60 + s62 + s63 - c143 >= 0
index_144: s8 + s9 + s12 + s14 + s90 + s93 + s97 + s107 - c144 >= 0
index_145: s12 + s13 + s15 + s87 + s89 + s91 + s93 + s94 + s95 + s97 + s107 - c145 >= 0
index_146: s20 + s34 + s38 + s39 + s64 + s65 + s66 - c146 >= 0
index_147: s26 + s30 + s32 + s35 + s36 + s54 + s57 + s62 + s63 + s74 + s76 + s83 + s87 + s91 + s93 - c147 >= 0
index_148: s36 + s63 + s92 - c148 >= 0
index_149: s34 + s38 + s59 + s60 + s66 - c149 >= 0
index_150: s6 + s7 + s10 + s11 + s101 + s107 - c150 >= 0
index_151: s6 + s9 + s10 + s11 + s102 + s103 + s107 - c151 >= 0
index_152: s17 + s21 + s22 + s26 + s27 + s29 + s32 + s35 + s61 + s68 + s69 + s71 + s72 + s77 + s80 + s81 - c152 >= 0
index_153: s16 + s20 + s30 + s32 + s33 + s34 + s36 + s45 + s58 + s59 + s60 + s63 - c153 >= 0
index_154: s6 + s7 + s101 + s103 + s107 - c154 >= 0
index_155: s7 - c155 >= 0
index_156: s7 + s10 + s11 + s101 + s107 - c156 >= 0
index_157: s104 + s105 + s107 - c157 >= 0
index_158: s7 + s8 + s9 + s10 - c158 >= 0
index_159: s107 - c159 >= 0
index_160: s17 + s19 + s21 + s22 + s23 + s26 + s27 + s29 + s30 + s32 + s34 + s35 + s36 + s37 + s38 + s39 + s40 + s57 + s58 + s59 + s60 + s62 + s63 + s65 + s66 + s68 + s69 + s77 + s78 + s94 - c160 >= 0
index_161: s7 + s105 - c161 >= 0
index_162: s104 + s105 + s107 - c162 >= 0
index_163: s8 - c163 >= 0
index_164: s8 + s9 - c164 >= 0
index_165: s101 + s107 - c165 >= 0
index_166: s50 + s52 + s53 - c166 >= 0
index_167: s22 + s26 + s52 + s54 + s57 - c167 >= 0
index_168: s22 + s45 + s47 + s48 + s51 + s52 + s53 + s54 + s56 + s57 - c168 >= 0
index_169: s89 + s93 + s107 - c169 >= 0
index_170: s24 + s50 + s51 + s52 - c170 >= 0
index_171: s36 + s40 + s63 + s68 + s69 + s71 + s73 + s75 + s78 + s79 + s81 + s82 + s84 + s89 - c171 >= 0
index_172: s0 + s1 + s2 + s3 + s100 - c172 >= 0
index_173: s3 + s100 - c173 >= 0
index_174: s0 + s98 + s100 - c174 >= 0
index_175: s16 + s20 + s24 + s25 + s35 + s36 + s39 + s50 + s62 + s63 + s66 + s68 + s69 + s72 + s75 + s77 + s79 + s80 + s82 + s84 + s96 - c175 >= 0
index_176: s26 + s32 + s34 + s37 + s39 + s58 + s59 + s63 + s65 + s66 - c176 >= 0
index_177: s104 + s105 - c177 >= 0
index_178: s0 + s1 - c178 >= 0
index_179: s0 + s1 + s2 + s90 + s98 - c179 >= 0
index_180: s3 + s5 + s12 + s93 + s107 - c180 >= 0
index_181: s22 + s27 + s33 + s36 + s39 + s59 + s63 + s66 + s68 + s69 + s70 + s71 + s72 + s77 + s78 + s79 + s80 + s81 - c181 >= 0
index_182: s8 + s9 + s89 + s90 + s105 + s107 - c182 >= 0
index_183: s0 + s5 + s6 + s10 + s11 + s12 + s16 + s34 + s37 + s60 + s63 + s71 + s76 + s81 + s86 + s89 + s93 + s94 + s95 + s96 + s97 + s98 + s101 + s104 + s106 - c183 >= 0
index_184: s26 + s30 + s53 + s56 + s57 - c184 >= 0
index_185: s3 + s12 + s99 + s100 + s104 - c185 >= 0
index_186: s39 + s40 + s67 + s72 + s76 + s80 + s82 + s87 - c186 >= 0
index_187: s6 + s9 + s10 + s11 + s30 + s70 + s72 + s73 + s81 + s82 + s83 + s107 - c187 >= 0
index_188: s12 + s101 - c188 >= 0
index_189: s26 + s30 + s49 + s51 + s53 + s56 + s57 - c189 >= 0
index_190: s3 + s5 + s11 + s107 - c190 >= 0
index_191: s99 + s100 - c191 >= 0
index_192: s101 - c192 >= 0
index_193: s46 + s57 - c193 >= 0
index_194: s26 + s27 + s31 + s48 + s51 + s53 + s54 + s57 - c194 >= 0
index_195: s26 + s31 + s53 + s54 + s57 - c195 >= 0
index_196: s11 + s103 + s107 - c196 >= 0
index_197: s68 + s69 + s71 + s72 + s73 + s75 + s79 + s81 + s82 + s84 - c197 >= 0
index_198: s15 + s16 + s71 + s81 + s95 - c198 >= 0
index_199: s101 + s102 + s103 + s108 - c199 >= 0
index_200: s10 + s108 - c200 >= 0
index_201: s7 + s10 + s101 - c201 >= 0
index_202: s9 + s10 + s11 + s90 + s100 + s101 + s103 + s107 - c202 >= 0
index_203: s12 + s16 + s19 + s45 + s69 + s78 + s83 + s87 + s91 + s94 + s96 - c203 >= 0
index_204: s49 + s53 - c204 >= 0
index_205: s70 + s73 + s75 + s80 + s82 + s84 - c205 >= 0
index_206: s19 + s27 + s30 + s32 + s34 + s35 + s37 + s38 + s54 + s57 + s58 + s59 + s63 + s64 + s65 + s90 - c206 >= 0
index_207: s99 + s100 - c207 >= 0
index_208: s3 + s9 + s34 + s60 + s70 + s80 + s93 + s94 - c208 >= 0
index_209: s14 + s15 + s16 + s92 + s94 - c209 >= 0
index_210: s22 + s27 + s29 + s47 + s49 + s54 + s56 + s91 - c210 >= 0
index_211: s22 + s27 + s29 + s47 + s49 + s54 + s56 - c211 >= 0
index_212: s4 + s19 + s44 + s88 + s90 - c212 >= 0
index_213: s17 + s21 + s47 + s53 + s56 + s57 - c213 >= 0
index_214: s69 + s70 + s72 + s73 + s75 + s79 + s80 + s82 + s84 - c214 >= 0
index_215: s18 + s19 + s20 + s22 + s28 + s32 + s35 + s38 + s46 + s48 + s56 + s58 + s60 + s64 - c215 >= 0
index_216: s21 + s29 + s38 + s47 + s56 - c216 >= 0
index_217: s21 + s23 + s29 + s32 + s33 + s34 + s35 + s38 + s41 + s47 + s50 + s52 + s56 + s58 + s59 + s60 + s62 + s65 + s68 + s77 + s91 - c217 >= 0
index_218: s6 + s10 + s11 + s36 + s63 + s69 + s70 + s72 + s73 + s74 + s76 + s78 + s80 + s82 + s83 + s87 + s89 + s90 + s91 + s95 + s104 - c218 >= 0
index_219: s19 + s25 + s35 + s40 + s50 + s61 + s62 + s67 + s68 + s72 + s75 + s77 + s79 + s82 + s84 - c219 >= 0
index_220: s19 + s22 + s26 + s28 + s29 + s30 + s32 + s34 + s36 + s37 + s44 + s56 + s57 + s58 + s59 + s63 + s88 - c220 >= 0
index_221: s69 + s72 + s73 + s76 + s80 + s85 - c221 >= 0
index_222: s4 + s37 + s45 + s63 + s68 + s69 + s72 + s77 + s82 + s88 + s94 - c222 >= 0
index_223: s6 + s7 + s14 + s94 + s99 + s100 - c223 >= 0
index_224: s22 + s27 + s36 + s39 + s40 + s41 + s63 + s66 + s68 + s71 + s81 - c224 >= 0
index_225: s36 + s39 + s40 + s63 + s66 + s67 + s68 + s75 - c225 >= 0
index_226: s73 + s75 + s82 + s84 + s88 + s89 + s90 + s91 + s92 + s94 - c226 >= 0
index_227: s7 + s8 + s71 + s91 - c227 >= 0
index_228: s68 + s69 + s72 + s75 + s77 + s78 + s82 + s84 + s91 + s96 - c228 >= 0
index_229: s14 + s16 + s75 + s94 - c229 >= 0
index_230: s88 + s89 + s90 + s91 + s92 + s94 + s100 - c230 >= 0
index_231: s6 + s7 + s11 + s100 + s106 - c231 >= 0
index_232: s17 + s21 + s26 + s29 + s30 + s32 + s34 + s36 + s38 + s45 + s47 + s48 + s54 + s56 + s57 + s58 + s63 + s65 - c232 >= 0
index_233: s30 + s32 + s56 + s58 + s60 - c233 >= 0
index_234: s10 + s11 + s15 + s16 + s87 + s89 + s90 + s96 + s100 + s103 - c234 >= 0
index_235: s15 + s88 + s89 + s91 + s94 + s96 - c235 >= 0
index_236: s89 + s93 + s94 + s96 - c236 >= 0
index_237: s6 + s7 + s100 - c237 >= 0
index_238: s4 + s5 + s6 + s7 + s8 + s11 + s12 + s92 + s96 + s100 + s103 + s106 - c238 >= 0
length: s0 + s1 + s2 + s3 + s4 + s5 + s6 + s7 + s8 + s9 + s10 + s11 + s12 + s13 + s14 + s15 + s16 + s17 + s18 + s19 + s20 + s21 + s22 + s23 + s24 + s25 + s26 + s27 + s28 + s29 + s30 + s31 + s32 + s33 + s34 + s35 + s36 + s37 + s38 + s39 + s40 + s41 + s42 + s43 + s44 + s45 + s46 + s47 + s48 + s49 + s50 + s51 + s52 + s53 + s54 + s55 + s56 + s57 + s58 + s59 + s60 + s61 + s62 + s63 + s64 + s65 + s66 + s67 + s68 + s69 + s70 + s71 + s72 + s73 + s74 + s75 + s76 + s77 + s78 + s79 + s80 + s81 + s82 + s83 + s84 + s85 + s86 + s87 + s88 + s89 + s90 + s91 + s92 + s93 + s94 + s95 + s96 + s97 + s98 + s99 + s100 + s101 + s102 + s103 + s104 + s105 + s106 + s107 + s108 <= 7



Binary
c0
c1
c2
c3
c4
c5
c6
c7
c8
c9
c10
c11
c12
c13
c14
c15
c16
c17
c18
c19
c20
c21
c22
c23
c24
c25
c26
c27
c28
c29
c30
c31
c32
c33
c34
c35
c36
c37
c38
c39
c40
c41
c42
c43
c44
c45
c46
c47
c48
c49
c50
c51
c52
c53
c54
c55
c56
c57
c58
c59
c60
c61
c62
c63
c64
c65
c66
c67
c68
c69
c70
c71
c72
c73
c74
c75
c76
c77
c78
c79
c80
c81
c82
c83
c84
c85
c86
c87
c88
c89
c90
c91
c92
c93
c94
c95
c96
c97
c98
c99
c100
c101
c102
c103
c104
c105
c106
c107
c108
c109
c110
c111
c112
c113
c114
c115
c116
c117
c118
c119
c120
c121
c122
c123
c124
c125
c126
c127
c128
c129
c130
c131
c132
c133
c134
c135
c136
c137
c138
c139
c140
c141
c142
c143
c144
c145
c146
c147
c148
c149
c150
c151
c152
c153
c154
c155
c156
c157
c158
c159
c160
c161
c162
c163
c164
c165
c166
c167
c168
c169
c170
c171
c172
c173
c174
c175
c176
c177
c178
c179
c180
c181
c182
c183
c184
c185
c186
c187
c188
c189
c190
c191
c192
c193
c194
c195
c196
c197
c198
c199
c200
c201
c202
c203
c204
c205
c206
c207
c208
c209
c210
c211
c212
c213
c214
c215
c216
c217
c218
c219
c220
c221
c222
c223
c224
c225
c226
c227
c228
c229
c230
c231
c232
c233
c234
c235
c236
c237
c238
s0
s1
s2
s3
s4
s5
s6
s7
s8
s9
s10
s11
s12
s13
s14
s15
s16
s17
s18
s19
s20
s21
s22
s23
s24
s25
s26
s27
s28
s29
s30
s31
s32
s33
s34
s35
s36
s37
s38
s39
s40
s41
s42
s43
s44
s45
s46
s47
s48
s49
s50
s51
s52
s53
s54
s55
s56
s57
s58
s59
s60
s61
s62
s63
s64
s65
s66
s67
s68
s69
s70
s71
s72
s73
s74
s75
s76
s77
s78
s79
s80
s81
s82
s83
s84
s85
s86
s87
s88
s89
s90
s91
s92
s93
s94
s95
s96
s97
s98
s99
s100
s101
s102
s103
s104
s105
s106
s107
s108
End